certificates/rado_a18_c10_N185.cnf
c Rad2 upper bound instance: x1 + 18*x2 - x3 = 10, interval [1,185]
p cnf 185 1920
1 9 0
-1 -9 0
1 2 27 0
-1 -2 -27 0
1 3 45 0
-1 -3 -45 0
1 4 63 0
-1 -4 -63 0
1 5 81 0
-1 -5 -81 0
1 6 99 0
-1 -6 -99 0
1 7 117 0
-1 -7 -117 0
1 8 135 0
-1 -8 -135 0
1 9 153 0
-1 -9 -153 0
1 10 171 0
-1 -10 -171 0
1 2 10 0
-1 -2 -10 0
2 28 0
-2 -28 0
2 3 46 0
-2 -3 -46 0
2 4 64 0
-2 -4 -64 0
2 5 82 0
-2 -5 -82 0
2 6 100 0
-2 -6 -100 0
2 7 118 0
-2 -7 -118 0
2 8 136 0
-2 -8 -136 0
2 9 154 0
-2 -9 -154 0
2 10 172 0
-2 -10 -172 0
1 3 11 0
-1 -3 -11 0
2 3 29 0
-2 -3 -29 0
3 47 0
-3 -47 0
3 4 65 0
-3 -4 -65 0
3 5 83 0
-3 -5 -83 0
3 6 101 0
-3 -6 -101 0
3 7 119 0
-3 -7 -119 0
3 8 137 0
-3 -8 -137 0
3 9 155 0
-3 -9 -155 0
3 10 173 0
-3 -10 -173 0
1 4 12 0
-1 -4 -12 0
2 4 30 0
-2 -4 -30 0
3 4 48 0
-3 -4 -48 0
4 66 0
-4 -66 0
4 5 84 0
-4 -5 -84 0
4 6 102 0
-4 -6 -102 0
4 7 120 0
-4 -7 -120 0
4 8 138 0
-4 -8 -138 0
4 9 156 0
-4 -9 -156 0
4 10 174 0
-4 -10 -174 0
1 5 13 0
-1 -5 -13 0
2 5 31 0
-2 -5 -31 0
3 5 49 0
-3 -5 -49 0
4 5 67 0
-4 -5 -67 0
5 85 0
-5 -85 0
5 6 103 0
-5 -6 -103 0
5 7 121 0
-5 -7 -121 0
5 8 139 0
-5 -8 -139 0
5 9 157 0
-5 -9 -157 0
5 10 175 0
-5 -10 -175 0
1 6 14 0
-1 -6 -14 0
2 6 32 0
-2 -6 -32 0
3 6 50 0
-3 -6 -50 0
4 6 68 0
-4 -6 -68 0
5 6 86 0
-5 -6 -86 0
6 104 0
-6 -104 0
6 7 122 0
-6 -7 -122 0
6 8 140 0
-6 -8 -140 0
6 9 158 0
-6 -9 -158 0
6 10 176 0
-6 -10 -176 0
1 7 15 0
-1 -7 -15 0
2 7 33 0
-2 -7 -33 0
3 7 51 0
-3 -7 -51 0
4 7 69 0
-4 -7 -69 0
5 7 87 0
-5 -7 -87 0
6 7 105 0
-6 -7 -105 0
7 123 0
-7 -123 0
7 8 141 0
-7 -8 -141 0
7 9 159 0
-7 -9 -159 0
7 10 177 0
-7 -10 -177 0
1 8 16 0
-1 -8 -16 0
2 8 34 0
-2 -8 -34 0
3 8 52 0
-3 -8 -52 0
4 8 70 0
-4 -8 -70 0
5 8 88 0
-5 -8 -88 0
6 8 106 0
-6 -8 -106 0
7 8 124 0
-7 -8 -124 0
8 142 0
-8 -142 0
8 9 160 0
-8 -9 -160 0
8 10 178 0
-8 -10 -178 0
1 9 17 0
-1 -9 -17 0
2 9 35 0
-2 -9 -35 0
3 9 53 0
-3 -9 -53 0
4 9 71 0
-4 -9 -71 0
5 9 89 0
-5 -9 -89 0
6 9 107 0
-6 -9 -107 0
7 9 125 0
-7 -9 -125 0
8 9 143 0
-8 -9 -143 0
9 161 0
-9 -161 0
9 10 179 0
-9 -10 -179 0
1 10 18 0
-1 -10 -18 0
2 10 36 0
-2 -10 -36 0
3 10 54 0
-3 -10 -54 0
4 10 72 0
-4 -10 -72 0
5 10 90 0
-5 -10 -90 0
6 10 108 0
-6 -10 -108 0
7 10 126 0
-7 -10 -126 0
8 10 144 0
-8 -10 -144 0
9 10 162 0
-9 -10 -162 0
10 180 0
-10 -180 0
1 11 19 0
-1 -11 -19 0
2 11 37 0
-2 -11 -37 0
3 11 55 0
-3 -11 -55 0
4 11 73 0
-4 -11 -73 0
5 11 91 0
-5 -11 -91 0
6 11 109 0
-6 -11 -109 0
7 11 127 0
-7 -11 -127 0
8 11 145 0
-8 -11 -145 0
9 11 163 0
-9 -11 -163 0
10 11 181 0
-10 -11 -181 0
1 12 20 0
-1 -12 -20 0
2 12 38 0
-2 -12 -38 0
3 12 56 0
-3 -12 -56 0
4 12 74 0
-4 -12 -74 0
5 12 92 0
-5 -12 -92 0
6 12 110 0
-6 -12 -110 0
7 12 128 0
-7 -12 -128 0
8 12 146 0
-8 -12 -146 0
9 12 164 0
-9 -12 -164 0
10 12 182 0
-10 -12 -182 0
1 13 21 0
-1 -13 -21 0
2 13 39 0
-2 -13 -39 0
3 13 57 0
-3 -13 -57 0
4 13 75 0
-4 -13 -75 0
5 13 93 0
-5 -13 -93 0
6 13 111 0
-6 -13 -111 0
7 13 129 0
-7 -13 -129 0
8 13 147 0
-8 -13 -147 0
9 13 165 0
-9 -13 -165 0
10 13 183 0
-10 -13 -183 0
1 14 22 0
-1 -14 -22 0
2 14 40 0
-2 -14 -40 0
3 14 58 0
-3 -14 -58 0
4 14 76 0
-4 -14 -76 0
5 14 94 0
-5 -14 -94 0
6 14 112 0
-6 -14 -112 0
7 14 130 0
-7 -14 -130 0
8 14 148 0
-8 -14 -148 0
9 14 166 0
-9 -14 -166 0
10 14 184 0
-10 -14 -184 0
1 15 23 0
-1 -15 -23 0
2 15 41 0
-2 -15 -41 0
3 15 59 0
-3 -15 -59 0
4 15 77 0
-4 -15 -77 0
5 15 95 0
-5 -15 -95 0
6 15 113 0
-6 -15 -113 0
7 15 131 0
-7 -15 -131 0
8 15 149 0
-8 -15 -149 0
9 15 167 0
-9 -15 -167 0
10 15 185 0
-10 -15 -185 0
1 16 24 0
-1 -16 -24 0
2 16 42 0
-2 -16 -42 0
3 16 60 0
-3 -16 -60 0
4 16 78 0
-4 -16 -78 0
5 16 96 0
-5 -16 -96 0
6 16 114 0
-6 -16 -114 0
7 16 132 0
-7 -16 -132 0
8 16 150 0
-8 -16 -150 0
9 16 168 0
-9 -16 -168 0
1 17 25 0
-1 -17 -25 0
2 17 43 0
-2 -17 -43 0
3 17 61 0
-3 -17 -61 0
4 17 79 0
-4 -17 -79 0
5 17 97 0
-5 -17 -97 0
6 17 115 0
-6 -17 -115 0
7 17 133 0
-7 -17 -133 0
8 17 151 0
-8 -17 -151 0
9 17 169 0
-9 -17 -169 0
1 18 26 0
-1 -18 -26 0
2 18 44 0
-2 -18 -44 0
3 18 62 0
-3 -18 -62 0
4 18 80 0
-4 -18 -80 0
5 18 98 0
-5 -18 -98 0
6 18 116 0
-6 -18 -116 0
7 18 134 0
-7 -18 -134 0
8 18 152 0
-8 -18 -152 0
9 18 170 0
-9 -18 -170 0
1 19 27 0
-1 -19 -27 0
2 19 45 0
-2 -19 -45 0
3 19 63 0
-3 -19 -63 0
4 19 81 0
-4 -19 -81 0
5 19 99 0
-5 -19 -99 0
6 19 117 0
-6 -19 -117 0
7 19 135 0
-7 -19 -135 0
8 19 153 0
-8 -19 -153 0
9 19 171 0
-9 -19 -171 0
1 20 28 0
-1 -20 -28 0
2 20 46 0
-2 -20 -46 0
3 20 64 0
-3 -20 -64 0
4 20 82 0
-4 -20 -82 0
5 20 100 0
-5 -20 -100 0
6 20 118 0
-6 -20 -118 0
7 20 136 0
-7 -20 -136 0
8 20 154 0
-8 -20 -154 0
9 20 172 0
-9 -20 -172 0
1 21 29 0
-1 -21 -29 0
2 21 47 0
-2 -21 -47 0
3 21 65 0
-3 -21 -65 0
4 21 83 0
-4 -21 -83 0
5 21 101 0
-5 -21 -101 0
6 21 119 0
-6 -21 -119 0
7 21 137 0
-7 -21 -137 0
8 21 155 0
-8 -21 -155 0
9 21 173 0
-9 -21 -173 0
1 22 30 0
-1 -22 -30 0
2 22 48 0
-2 -22 -48 0
3 22 66 0
-3 -22 -66 0
4 22 84 0
-4 -22 -84 0
5 22 102 0
-5 -22 -102 0
6 22 120 0
-6 -22 -120 0
7 22 138 0
-7 -22 -138 0
8 22 156 0
-8 -22 -156 0
9 22 174 0
-9 -22 -174 0
1 23 31 0
-1 -23 -31 0
2 23 49 0
-2 -23 -49 0
3 23 67 0
-3 -23 -67 0
4 23 85 0
-4 -23 -85 0
5 23 103 0
-5 -23 -103 0
6 23 121 0
-6 -23 -121 0
7 23 139 0
-7 -23 -139 0
8 23 157 0
-8 -23 -157 0
9 23 175 0
-9 -23 -175 0
1 24 32 0
-1 -24 -32 0
2 24 50 0
-2 -24 -50 0
3 24 68 0
-3 -24 -68 0
4 24 86 0
-4 -24 -86 0
5 24 104 0
-5 -24 -104 0
6 24 122 0
-6 -24 -122 0
7 24 140 0
-7 -24 -140 0
8 24 158 0
-8 -24 -158 0
9 24 176 0
-9 -24 -176 0
1 25 33 0
-1 -25 -33 0
2 25 51 0
-2 -25 -51 0
3 25 69 0
-3 -25 -69 0
4 25 87 0
-4 -25 -87 0
5 25 105 0
-5 -25 -105 0
6 25 123 0
-6 -25 -123 0
7 25 141 0
-7 -25 -141 0
8 25 159 0
-8 -25 -159 0
9 25 177 0
-9 -25 -177 0
1 26 34 0
-1 -26 -34 0
2 26 52 0
-2 -26 -52 0
3 26 70 0
-3 -26 -70 0
4 26 88 0
-4 -26 -88 0
5 26 106 0
-5 -26 -106 0
6 26 124 0
-6 -26 -124 0
7 26 142 0
-7 -26 -142 0
8 26 160 0
-8 -26 -160 0
9 26 178 0
-9 -26 -178 0
1 27 35 0
-1 -27 -35 0
2 27 53 0
-2 -27 -53 0
3 27 71 0
-3 -27 -71 0
4 27 89 0
-4 -27 -89 0
5 27 107 0
-5 -27 -107 0
6 27 125 0
-6 -27 -125 0
7 27 143 0
-7 -27 -143 0
8 27 161 0
-8 -27 -161 0
9 27 179 0
-9 -27 -179 0
1 28 36 0
-1 -28 -36 0
2 28 54 0
-2 -28 -54 0
3 28 72 0
-3 -28 -72 0
4 28 90 0
-4 -28 -90 0
5 28 108 0
-5 -28 -108 0
6 28 126 0
-6 -28 -126 0
7 28 144 0
-7 -28 -144 0
8 28 162 0
-8 -28 -162 0
9 28 180 0
-9 -28 -180 0
1 29 37 0
-1 -29 -37 0
2 29 55 0
-2 -29 -55 0
3 29 73 0
-3 -29 -73 0
4 29 91 0
-4 -29 -91 0
5 29 109 0
-5 -29 -109 0
6 29 127 0
-6 -29 -127 0
7 29 145 0
-7 -29 -145 0
8 29 163 0
-8 -29 -163 0
9 29 181 0
-9 -29 -181 0
1 30 38 0
-1 -30 -38 0
2 30 56 0
-2 -30 -56 0
3 30 74 0
-3 -30 -74 0
4 30 92 0
-4 -30 -92 0
5 30 110 0
-5 -30 -110 0
6 30 128 0
-6 -30 -128 0
7 30 146 0
-7 -30 -146 0
8 30 164 0
-8 -30 -164 0
9 30 182 0
-9 -30 -182 0
1 31 39 0
-1 -31 -39 0
2 31 57 0
-2 -31 -57 0
3 31 75 0
-3 -31 -75 0
4 31 93 0
-4 -31 -93 0
5 31 111 0
-5 -31 -111 0
6 31 129 0
-6 -31 -129 0
7 31 147 0
-7 -31 -147 0
8 31 165 0
-8 -31 -165 0
9 31 183 0
-9 -31 -183 0
1 32 40 0
-1 -32 -40 0
2 32 58 0
-2 -32 -58 0
3 32 76 0
-3 -32 -76 0
4 32 94 0
-4 -32 -94 0
5 32 112 0
-5 -32 -112 0
6 32 130 0
-6 -32 -130 0
7 32 148 0
-7 -32 -148 0
8 32 166 0
-8 -32 -166 0
9 32 184 0
-9 -32 -184 0
1 33 41 0
-1 -33 -41 0
2 33 59 0
-2 -33 -59 0
3 33 77 0
-3 -33 -77 0
4 33 95 0
-4 -33 -95 0
5 33 113 0
-5 -33 -113 0
6 33 131 0
-6 -33 -131 0
7 33 149 0
-7 -33 -149 0
8 33 167 0
-8 -33 -167 0
9 33 185 0
-9 -33 -185 0
1 34 42 0
-1 -34 -42 0
2 34 60 0
-2 -34 -60 0
3 34 78 0
-3 -34 -78 0
4 34 96 0
-4 -34 -96 0
5 34 114 0
-5 -34 -114 0
6 34 132 0
-6 -34 -132 0
7 34 150 0
-7 -34 -150 0
8 34 168 0
-8 -34 -168 0
1 35 43 0
-1 -35 -43 0
2 35 61 0
-2 -35 -61 0
3 35 79 0
-3 -35 -79 0
4 35 97 0
-4 -35 -97 0
5 35 115 0
-5 -35 -115 0
6 35 133 0
-6 -35 -133 0
7 35 151 0
-7 -35 -151 0
8 35 169 0
-8 -35 -169 0
1 36 44 0
-1 -36 -44 0
2 36 62 0
-2 -36 -62 0
3 36 80 0
-3 -36 -80 0
4 36 98 0
-4 -36 -98 0
5 36 116 0
-5 -36 -116 0
6 36 134 0
-6 -36 -134 0
7 36 152 0
-7 -36 -152 0
8 36 170 0
-8 -36 -170 0
1 37 45 0
-1 -37 -45 0
2 37 63 0
-2 -37 -63 0
3 37 81 0
-3 -37 -81 0
4 37 99 0
-4 -37 -99 0
5 37 117 0
-5 -37 -117 0
6 37 135 0
-6 -37 -135 0
7 37 153 0
-7 -37 -153 0
8 37 171 0
-8 -37 -171 0
1 38 46 0
-1 -38 -46 0
2 38 64 0
-2 -38 -64 0
3 38 82 0
-3 -38 -82 0
4 38 100 0
-4 -38 -100 0
5 38 118 0
-5 -38 -118 0
6 38 136 0
-6 -38 -136 0
7 38 154 0
-7 -38 -154 0
8 38 172 0
-8 -38 -172 0
1 39 47 0
-1 -39 -47 0
2 39 65 0
-2 -39 -65 0
3 39 83 0
-3 -39 -83 0
4 39 101 0
-4 -39 -101 0
5 39 119 0
-5 -39 -119 0
6 39 137 0
-6 -39 -137 0
7 39 155 0
-7 -39 -155 0
8 39 173 0
-8 -39 -173 0
1 40 48 0
-1 -40 -48 0
2 40 66 0
-2 -40 -66 0
3 40 84 0
-3 -40 -84 0
4 40 102 0
-4 -40 -102 0
5 40 120 0
-5 -40 -120 0
6 40 138 0
-6 -40 -138 0
7 40 156 0
-7 -40 -156 0
8 40 174 0
-8 -40 -174 0
1 41 49 0
-1 -41 -49 0
2 41 67 0
-2 -41 -67 0
3 41 85 0
-3 -41 -85 0
4 41 103 0
-4 -41 -103 0
5 41 121 0
-5 -41 -121 0
6 41 139 0
-6 -41 -139 0
7 41 157 0
-7 -41 -157 0
8 41 175 0
-8 -41 -175 0
1 42 50 0
-1 -42 -50 0
2 42 68 0
-2 -42 -68 0
3 42 86 0
-3 -42 -86 0
4 42 104 0
-4 -42 -104 0
5 42 122 0
-5 -42 -122 0
6 42 140 0
-6 -42 -140 0
7 42 158 0
-7 -42 -158 0
8 42 176 0
-8 -42 -176 0
1 43 51 0
-1 -43 -51 0
2 43 69 0
-2 -43 -69 0
3 43 87 0
-3 -43 -87 0
4 43 105 0
-4 -43 -105 0
5 43 123 0
-5 -43 -123 0
6 43 141 0
-6 -43 -141 0
7 43 159 0
-7 -43 -159 0
8 43 177 0
-8 -43 -177 0
1 44 52 0
-1 -44 -52 0
2 44 70 0
-2 -44 -70 0
3 44 88 0
-3 -44 -88 0
4 44 106 0
-4 -44 -106 0
5 44 124 0
-5 -44 -124 0
6 44 142 0
-6 -44 -142 0
7 44 160 0
-7 -44 -160 0
8 44 178 0
-8 -44 -178 0
1 45 53 0
-1 -45 -53 0
2 45 71 0
-2 -45 -71 0
3 45 89 0
-3 -45 -89 0
4 45 107 0
-4 -45 -107 0
5 45 125 0
-5 -45 -125 0
6 45 143 0
-6 -45 -143 0
7 45 161 0
-7 -45 -161 0
8 45 179 0
-8 -45 -179 0
1 46 54 0
-1 -46 -54 0
2 46 72 0
-2 -46 -72 0
3 46 90 0
-3 -46 -90 0
4 46 108 0
-4 -46 -108 0
5 46 126 0
-5 -46 -126 0
6 46 144 0
-6 -46 -144 0
7 46 162 0
-7 -46 -162 0
8 46 180 0
-8 -46 -180 0
1 47 55 0
-1 -47 -55 0
2 47 73 0
-2 -47 -73 0
3 47 91 0
-3 -47 -91 0
4 47 109 0
-4 -47 -109 0
5 47 127 0
-5 -47 -127 0
6 47 145 0
-6 -47 -145 0
7 47 163 0
-7 -47 -163 0
8 47 181 0
-8 -47 -181 0
1 48 56 0
-1 -48 -56 0
2 48 74 0
-2 -48 -74 0
3 48 92 0
-3 -48 -92 0
4 48 110 0
-4 -48 -110 0
5 48 128 0
-5 -48 -128 0
6 48 146 0
-6 -48 -146 0
7 48 164 0
-7 -48 -164 0
8 48 182 0
-8 -48 -182 0
1 49 57 0
-1 -49 -57 0
2 49 75 0
-2 -49 -75 0
3 49 93 0
-3 -49 -93 0
4 49 111 0
-4 -49 -111 0
5 49 129 0
-5 -49 -129 0
6 49 147 0
-6 -49 -147 0
7 49 165 0
-7 -49 -165 0
8 49 183 0
-8 -49 -183 0
1 50 58 0
-1 -50 -58 0
2 50 76 0
-2 -50 -76 0
3 50 94 0
-3 -50 -94 0
4 50 112 0
-4 -50 -112 0
5 50 130 0
-5 -50 -130 0
6 50 148 0
-6 -50 -148 0
7 50 166 0
-7 -50 -166 0
8 50 184 0
-8 -50 -184 0
1 51 59 0
-1 -51 -59 0
2 51 77 0
-2 -51 -77 0
3 51 95 0
-3 -51 -95 0
4 51 113 0
-4 -51 -113 0
5 51 131 0
-5 -51 -131 0
6 51 149 0
-6 -51 -149 0
7 51 167 0
-7 -51 -167 0
8 51 185 0
-8 -51 -185 0
1 52 60 0
-1 -52 -60 0
2 52 78 0
-2 -52 -78 0
3 52 96 0
-3 -52 -96 0
4 52 114 0
-4 -52 -114 0
5 52 132 0
-5 -52 -132 0
6 52 150 0
-6 -52 -150 0
7 52 168 0
-7 -52 -168 0
1 53 61 0
-1 -53 -61 0
2 53 79 0
-2 -53 -79 0
3 53 97 0
-3 -53 -97 0
4 53 115 0
-4 -53 -115 0
5 53 133 0
-5 -53 -133 0
6 53 151 0
-6 -53 -151 0
7 53 169 0
-7 -53 -169 0
1 54 62 0
-1 -54 -62 0
2 54 80 0
-2 -54 -80 0
3 54 98 0
-3 -54 -98 0
4 54 116 0
-4 -54 -116 0
5 54 134 0
-5 -54 -134 0
6 54 152 0
-6 -54 -152 0
7 54 170 0
-7 -54 -170 0
1 55 63 0
-1 -55 -63 0
2 55 81 0
-2 -55 -81 0
3 55 99 0
-3 -55 -99 0
4 55 117 0
-4 -55 -117 0
5 55 135 0
-5 -55 -135 0
6 55 153 0
-6 -55 -153 0
7 55 171 0
-7 -55 -171 0
1 56 64 0
-1 -56 -64 0
2 56 82 0
-2 -56 -82 0
3 56 100 0
-3 -56 -100 0
4 56 118 0
-4 -56 -118 0
5 56 136 0
-5 -56 -136 0
6 56 154 0
-6 -56 -154 0
7 56 172 0
-7 -56 -172 0
1 57 65 0
-1 -57 -65 0
2 57 83 0
-2 -57 -83 0
3 57 101 0
-3 -57 -101 0
4 57 119 0
-4 -57 -119 0
5 57 137 0
-5 -57 -137 0
6 57 155 0
-6 -57 -155 0
7 57 173 0
-7 -57 -173 0
1 58 66 0
-1 -58 -66 0
2 58 84 0
-2 -58 -84 0
3 58 102 0
-3 -58 -102 0
4 58 120 0
-4 -58 -120 0
5 58 138 0
-5 -58 -138 0
6 58 156 0
-6 -58 -156 0
7 58 174 0
-7 -58 -174 0
1 59 67 0
-1 -59 -67 0
2 59 85 0
-2 -59 -85 0
3 59 103 0
-3 -59 -103 0
4 59 121 0
-4 -59 -121 0
5 59 139 0
-5 -59 -139 0
6 59 157 0
-6 -59 -157 0
7 59 175 0
-7 -59 -175 0
1 60 68 0
-1 -60 -68 0
2 60 86 0
-2 -60 -86 0
3 60 104 0
-3 -60 -104 0
4 60 122 0
-4 -60 -122 0
5 60 140 0
-5 -60 -140 0
6 60 158 0
-6 -60 -158 0
7 60 176 0
-7 -60 -176 0
1 61 69 0
-1 -61 -69 0
2 61 87 0
-2 -61 -87 0
3 61 105 0
-3 -61 -105 0
4 61 123 0
-4 -61 -123 0
5 61 141 0
-5 -61 -141 0
6 61 159 0
-6 -61 -159 0
7 61 177 0
-7 -61 -177 0
1 62 70 0
-1 -62 -70 0
2 62 88 0
-2 -62 -88 0
3 62 106 0
-3 -62 -106 0
4 62 124 0
-4 -62 -124 0
5 62 142 0
-5 -62 -142 0
6 62 160 0
-6 -62 -160 0
7 62 178 0
-7 -62 -178 0
1 63 71 0
-1 -63 -71 0
2 63 89 0
-2 -63 -89 0
3 63 107 0
-3 -63 -107 0
4 63 125 0
-4 -63 -125 0
5 63 143 0
-5 -63 -143 0
6 63 161 0
-6 -63 -161 0
7 63 179 0
-7 -63 -179 0
1 64 72 0
-1 -64 -72 0
2 64 90 0
-2 -64 -90 0
3 64 108 0
-3 -64 -108 0
4 64 126 0
-4 -64 -126 0
5 64 144 0
-5 -64 -144 0
6 64 162 0
-6 -64 -162 0
7 64 180 0
-7 -64 -180 0
1 65 73 0
-1 -65 -73 0
2 65 91 0
-2 -65 -91 0
3 65 109 0
-3 -65 -109 0
4 65 127 0
-4 -65 -127 0
5 65 145 0
-5 -65 -145 0
6 65 163 0
-6 -65 -163 0
7 65 181 0
-7 -65 -181 0
1 66 74 0
-1 -66 -74 0
2 66 92 0
-2 -66 -92 0
3 66 110 0
-3 -66 -110 0
4 66 128 0
-4 -66 -128 0
5 66 146 0
-5 -66 -146 0
6 66 164 0
-6 -66 -164 0
7 66 182 0
-7 -66 -182 0
1 67 75 0
-1 -67 -75 0
2 67 93 0
-2 -67 -93 0
3 67 111 0
-3 -67 -111 0
4 67 129 0
-4 -67 -129 0
5 67 147 0
-5 -67 -147 0
6 67 165 0
-6 -67 -165 0
7 67 183 0
-7 -67 -183 0
1 68 76 0
-1 -68 -76 0
2 68 94 0
-2 -68 -94 0
3 68 112 0
-3 -68 -112 0
4 68 130 0
-4 -68 -130 0
5 68 148 0
-5 -68 -148 0
6 68 166 0
-6 -68 -166 0
7 68 184 0
-7 -68 -184 0
1 69 77 0
-1 -69 -77 0
2 69 95 0
-2 -69 -95 0
3 69 113 0
-3 -69 -113 0
4 69 131 0
-4 -69 -131 0
5 69 149 0
-5 -69 -149 0
6 69 167 0
-6 -69 -167 0
7 69 185 0
-7 -69 -185 0
1 70 78 0
-1 -70 -78 0
2 70 96 0
-2 -70 -96 0
3 70 114 0
-3 -70 -114 0
4 70 132 0
-4 -70 -132 0
5 70 150 0
-5 -70 -150 0
6 70 168 0
-6 -70 -168 0
1 71 79 0
-1 -71 -79 0
2 71 97 0
-2 -71 -97 0
3 71 115 0
-3 -71 -115 0
4 71 133 0
-4 -71 -133 0
5 71 151 0
-5 -71 -151 0
6 71 169 0
-6 -71 -169 0
1 72 80 0
-1 -72 -80 0
2 72 98 0
-2 -72 -98 0
3 72 116 0
-3 -72 -116 0
4 72 134 0
-4 -72 -134 0
5 72 152 0
-5 -72 -152 0
6 72 170 0
-6 -72 -170 0
1 73 81 0
-1 -73 -81 0
2 73 99 0
-2 -73 -99 0
3 73 117 0
-3 -73 -117 0
4 73 135 0
-4 -73 -135 0
5 73 153 0
-5 -73 -153 0
6 73 171 0
-6 -73 -171 0
1 74 82 0
-1 -74 -82 0
2 74 100 0
-2 -74 -100 0
3 74 118 0
-3 -74 -118 0
4 74 136 0
-4 -74 -136 0
5 74 154 0
-5 -74 -154 0
6 74 172 0
-6 -74 -172 0
1 75 83 0
-1 -75 -83 0
2 75 101 0
-2 -75 -101 0
3 75 119 0
-3 -75 -119 0
4 75 137 0
-4 -75 -137 0
5 75 155 0
-5 -75 -155 0
6 75 173 0
-6 -75 -173 0
1 76 84 0
-1 -76 -84 0
2 76 102 0
-2 -76 -102 0
3 76 120 0
-3 -76 -120 0
4 76 138 0
-4 -76 -138 0
5 76 156 0
-5 -76 -156 0
6 76 174 0
-6 -76 -174 0
1 77 85 0
-1 -77 -85 0
2 77 103 0
-2 -77 -103 0
3 77 121 0
-3 -77 -121 0
4 77 139 0
-4 -77 -139 0
5 77 157 0
-5 -77 -157 0
6 77 175 0
-6 -77 -175 0
1 78 86 0
-1 -78 -86 0
2 78 104 0
-2 -78 -104 0
3 78 122 0
-3 -78 -122 0
4 78 140 0
-4 -78 -140 0
5 78 158 0
-5 -78 -158 0
6 78 176 0
-6 -78 -176 0
1 79 87 0
-1 -79 -87 0
2 79 105 0
-2 -79 -105 0
3 79 123 0
-3 -79 -123 0
4 79 141 0
-4 -79 -141 0
5 79 159 0
-5 -79 -159 0
6 79 177 0
-6 -79 -177 0
1 80 88 0
-1 -80 -88 0
2 80 106 0
-2 -80 -106 0
3 80 124 0
-3 -80 -124 0
4 80 142 0
-4 -80 -142 0
5 80 160 0
-5 -80 -160 0
6 80 178 0
-6 -80 -178 0
1 81 89 0
-1 -81 -89 0
2 81 107 0
-2 -81 -107 0
3 81 125 0
-3 -81 -125 0
4 81 143 0
-4 -81 -143 0
5 81 161 0
-5 -81 -161 0
6 81 179 0
-6 -81 -179 0
1 82 90 0
-1 -82 -90 0
2 82 108 0
-2 -82 -108 0
3 82 126 0
-3 -82 -126 0
4 82 144 0
-4 -82 -144 0
5 82 162 0
-5 -82 -162 0
6 82 180 0
-6 -82 -180 0
1 83 91 0
-1 -83 -91 0
2 83 109 0
-2 -83 -109 0
3 83 127 0
-3 -83 -127 0
4 83 145 0
-4 -83 -145 0
5 83 163 0
-5 -83 -163 0
6 83 181 0
-6 -83 -181 0
1 84 92 0
-1 -84 -92 0
2 84 110 0
-2 -84 -110 0
3 84 128 0
-3 -84 -128 0
4 84 146 0
-4 -84 -146 0
5 84 164 0
-5 -84 -164 0
6 84 182 0
-6 -84 -182 0
1 85 93 0
-1 -85 -93 0
2 85 111 0
-2 -85 -111 0
3 85 129 0
-3 -85 -129 0
4 85 147 0
-4 -85 -147 0
5 85 165 0
-5 -85 -165 0
6 85 183 0
-6 -85 -183 0
1 86 94 0
-1 -86 -94 0
2 86 112 0
-2 -86 -112 0
3 86 130 0
-3 -86 -130 0
4 86 148 0
-4 -86 -148 0
5 86 166 0
-5 -86 -166 0
6 86 184 0
-6 -86 -184 0
1 87 95 0
-1 -87 -95 0
2 87 113 0
-2 -87 -113 0
3 87 131 0
-3 -87 -131 0
4 87 149 0
-4 -87 -149 0
5 87 167 0
-5 -87 -167 0
6 87 185 0
-6 -87 -185 0
1 88 96 0
-1 -88 -96 0
2 88 114 0
-2 -88 -114 0
3 88 132 0
-3 -88 -132 0
4 88 150 0
-4 -88 -150 0
5 88 168 0
-5 -88 -168 0
1 89 97 0
-1 -89 -97 0
2 89 115 0
-2 -89 -115 0
3 89 133 0
-3 -89 -133 0
4 89 151 0
-4 -89 -151 0
5 89 169 0
-5 -89 -169 0
1 90 98 0
-1 -90 -98 0
2 90 116 0
-2 -90 -116 0
3 90 134 0
-3 -90 -134 0
4 90 152 0
-4 -90 -152 0
5 90 170 0
-5 -90 -170 0
1 91 99 0
-1 -91 -99 0
2 91 117 0
-2 -91 -117 0
3 91 135 0
-3 -91 -135 0
4 91 153 0
-4 -91 -153 0
5 91 171 0
-5 -91 -171 0
1 92 100 0
-1 -92 -100 0
2 92 118 0
-2 -92 -118 0
3 92 136 0
-3 -92 -136 0
4 92 154 0
-4 -92 -154 0
5 92 172 0
-5 -92 -172 0
1 93 101 0
-1 -93 -101 0
2 93 119 0
-2 -93 -119 0
3 93 137 0
-3 -93 -137 0
4 93 155 0
-4 -93 -155 0
5 93 173 0
-5 -93 -173 0
1 94 102 0
-1 -94 -102 0
2 94 120 0
-2 -94 -120 0
3 94 138 0
-3 -94 -138 0
4 94 156 0
-4 -94 -156 0
5 94 174 0
-5 -94 -174 0
1 95 103 0
-1 -95 -103 0
2 95 121 0
-2 -95 -121 0
3 95 139 0
-3 -95 -139 0
4 95 157 0
-4 -95 -157 0
5 95 175 0
-5 -95 -175 0
1 96 104 0
-1 -96 -104 0
2 96 122 0
-2 -96 -122 0
3 96 140 0
-3 -96 -140 0
4 96 158 0
-4 -96 -158 0
5 96 176 0
-5 -96 -176 0
1 97 105 0
-1 -97 -105 0
2 97 123 0
-2 -97 -123 0
3 97 141 0
-3 -97 -141 0
4 97 159 0
-4 -97 -159 0
5 97 177 0
-5 -97 -177 0
1 98 106 0
-1 -98 -106 0
2 98 124 0
-2 -98 -124 0
3 98 142 0
-3 -98 -142 0
4 98 160 0
-4 -98 -160 0
5 98 178 0
-5 -98 -178 0
1 99 107 0
-1 -99 -107 0
2 99 125 0
-2 -99 -125 0
3 99 143 0
-3 -99 -143 0
4 99 161 0
-4 -99 -161 0
5 99 179 0
-5 -99 -179 0
1 100 108 0
-1 -100 -108 0
2 100 126 0
-2 -100 -126 0
3 100 144 0
-3 -100 -144 0
4 100 162 0
-4 -100 -162 0
5 100 180 0
-5 -100 -180 0
1 101 109 0
-1 -101 -109 0
2 101 127 0
-2 -101 -127 0
3 101 145 0
-3 -101 -145 0
4 101 163 0
-4 -101 -163 0
5 101 181 0
-5 -101 -181 0
1 102 110 0
-1 -102 -110 0
2 102 128 0
-2 -102 -128 0
3 102 146 0
-3 -102 -146 0
4 102 164 0
-4 -102 -164 0
5 102 182 0
-5 -102 -182 0
1 103 111 0
-1 -103 -111 0
2 103 129 0
-2 -103 -129 0
3 103 147 0
-3 -103 -147 0
4 103 165 0
-4 -103 -165 0
5 103 183 0
-5 -103 -183 0
1 104 112 0
-1 -104 -112 0
2 104 130 0
-2 -104 -130 0
3 104 148 0
-3 -104 -148 0
4 104 166 0
-4 -104 -166 0
5 104 184 0
-5 -104 -184 0
1 105 113 0
-1 -105 -113 0
2 105 131 0
-2 -105 -131 0
3 105 149 0
-3 -105 -149 0
4 105 167 0
-4 -105 -167 0
5 105 185 0
-5 -105 -185 0
1 106 114 0
-1 -106 -114 0
2 106 132 0
-2 -106 -132 0
3 106 150 0
-3 -106 -150 0
4 106 168 0
-4 -106 -168 0
1 107 115 0
-1 -107 -115 0
2 107 133 0
-2 -107 -133 0
3 107 151 0
-3 -107 -151 0
4 107 169 0
-4 -107 -169 0
1 108 116 0
-1 -108 -116 0
2 108 134 0
-2 -108 -134 0
3 108 152 0
-3 -108 -152 0
4 108 170 0
-4 -108 -170 0
1 109 117 0
-1 -109 -117 0
2 109 135 0
-2 -109 -135 0
3 109 153 0
-3 -109 -153 0
4 109 171 0
-4 -109 -171 0
1 110 118 0
-1 -110 -118 0
2 110 136 0
-2 -110 -136 0
3 110 154 0
-3 -110 -154 0
4 110 172 0
-4 -110 -172 0
1 111 119 0
-1 -111 -119 0
2 111 137 0
-2 -111 -137 0
3 111 155 0
-3 -111 -155 0
4 111 173 0
-4 -111 -173 0
1 112 120 0
-1 -112 -120 0
2 112 138 0
-2 -112 -138 0
3 112 156 0
-3 -112 -156 0
4 112 174 0
-4 -112 -174 0
1 113 121 0
-1 -113 -121 0
2 113 139 0
-2 -113 -139 0
3 113 157 0
-3 -113 -157 0
4 113 175 0
-4 -113 -175 0
1 114 122 0
-1 -114 -122 0
2 114 140 0
-2 -114 -140 0
3 114 158 0
-3 -114 -158 0
4 114 176 0
-4 -114 -176 0
1 115 123 0
-1 -115 -123 0
2 115 141 0
-2 -115 -141 0
3 115 159 0
-3 -115 -159 0
4 115 177 0
-4 -115 -177 0
1 116 124 0
-1 -116 -124 0
2 116 142 0
-2 -116 -142 0
3 116 160 0
-3 -116 -160 0
4 116 178 0
-4 -116 -178 0
1 117 125 0
-1 -117 -125 0
2 117 143 0
-2 -117 -143 0
3 117 161 0
-3 -117 -161 0
4 117 179 0
-4 -117 -179 0
1 118 126 0
-1 -118 -126 0
2 118 144 0
-2 -118 -144 0
3 118 162 0
-3 -118 -162 0
4 118 180 0
-4 -118 -180 0
1 119 127 0
-1 -119 -127 0
2 119 145 0
-2 -119 -145 0
3 119 163 0
-3 -119 -163 0
4 119 181 0
-4 -119 -181 0
1 120 128 0
-1 -120 -128 0
2 120 146 0
-2 -120 -146 0
3 120 164 0
-3 -120 -164 0
4 120 182 0
-4 -120 -182 0
1 121 129 0
-1 -121 -129 0
2 121 147 0
-2 -121 -147 0
3 121 165 0
-3 -121 -165 0
4 121 183 0
-4 -121 -183 0
1 122 130 0
-1 -122 -130 0
2 122 148 0
-2 -122 -148 0
3 122 166 0
-3 -122 -166 0
4 122 184 0
-4 -122 -184 0
1 123 131 0
-1 -123 -131 0
2 123 149 0
-2 -123 -149 0
3 123 167 0
-3 -123 -167 0
4 123 185 0
-4 -123 -185 0
1 124 132 0
-1 -124 -132 0
2 124 150 0
-2 -124 -150 0
3 124 168 0
-3 -124 -168 0
1 125 133 0
-1 -125 -133 0
2 125 151 0
-2 -125 -151 0
3 125 169 0
-3 -125 -169 0
1 126 134 0
-1 -126 -134 0
2 126 152 0
-2 -126 -152 0
3 126 170 0
-3 -126 -170 0
1 127 135 0
-1 -127 -135 0
2 127 153 0
-2 -127 -153 0
3 127 171 0
-3 -127 -171 0
1 128 136 0
-1 -128 -136 0
2 128 154 0
-2 -128 -154 0
3 128 172 0
-3 -128 -172 0
1 129 137 0
-1 -129 -137 0
2 129 155 0
-2 -129 -155 0
3 129 173 0
-3 -129 -173 0
1 130 138 0
-1 -130 -138 0
2 130 156 0
-2 -130 -156 0
3 130 174 0
-3 -130 -174 0
1 131 139 0
-1 -131 -139 0
2 131 157 0
-2 -131 -157 0
3 131 175 0
-3 -131 -175 0
1 132 140 0
-1 -132 -140 0
2 132 158 0
-2 -132 -158 0
3 132 176 0
-3 -132 -176 0
1 133 141 0
-1 -133 -141 0
2 133 159 0
-2 -133 -159 0
3 133 177 0
-3 -133 -177 0
1 134 142 0
-1 -134 -142 0
2 134 160 0
-2 -134 -160 0
3 134 178 0
-3 -134 -178 0
1 135 143 0
-1 -135 -143 0
2 135 161 0
-2 -135 -161 0
3 135 179 0
-3 -135 -179 0
1 136 144 0
-1 -136 -144 0
2 136 162 0
-2 -136 -162 0
3 136 180 0
-3 -136 -180 0
1 137 145 0
-1 -137 -145 0
2 137 163 0
-2 -137 -163 0
3 137 181 0
-3 -137 -181 0
1 138 146 0
-1 -138 -146 0
2 138 164 0
-2 -138 -164 0
3 138 182 0
-3 -138 -182 0
1 139 147 0
-1 -139 -147 0
2 139 165 0
-2 -139 -165 0
3 139 183 0
-3 -139 -183 0
1 140 148 0
-1 -140 -148 0
2 140 166 0
-2 -140 -166 0
3 140 184 0
-3 -140 -184 0
1 141 149 0
-1 -141 -149 0
2 141 167 0
-2 -141 -167 0
3 141 185 0
-3 -141 -185 0
1 142 150 0
-1 -142 -150 0
2 142 168 0
-2 -142 -168 0
1 143 151 0
-1 -143 -151 0
2 143 169 0
-2 -143 -169 0
1 144 152 0
-1 -144 -152 0
2 144 170 0
-2 -144 -170 0
1 145 153 0
-1 -145 -153 0
2 145 171 0
-2 -145 -171 0
1 146 154 0
-1 -146 -154 0
2 146 172 0
-2 -146 -172 0
1 147 155 0
-1 -147 -155 0
2 147 173 0
-2 -147 -173 0
1 148 156 0
-1 -148 -156 0
2 148 174 0
-2 -148 -174 0
1 149 157 0
-1 -149 -157 0
2 149 175 0
-2 -149 -175 0
1 150 158 0
-1 -150 -158 0
2 150 176 0
-2 -150 -176 0
1 151 159 0
-1 -151 -159 0
2 151 177 0
-2 -151 -177 0
1 152 160 0
-1 -152 -160 0
2 152 178 0
-2 -152 -178 0
1 153 161 0
-1 -153 -161 0
2 153 179 0
-2 -153 -179 0
1 154 162 0
-1 -154 -162 0
2 154 180 0
-2 -154 -180 0
1 155 163 0
-1 -155 -163 0
2 155 181 0
-2 -155 -181 0
1 156 164 0
-1 -156 -164 0
2 156 182 0
-2 -156 -182 0
1 157 165 0
-1 -157 -165 0
2 157 183 0
-2 -157 -183 0
1 158 166 0
-1 -158 -166 0
2 158 184 0
-2 -158 -184 0
1 159 167 0
-1 -159 -167 0
2 159 185 0
-2 -159 -185 0
1 160 168 0
-1 -160 -168 0
1 161 169 0
-1 -161 -169 0
1 162 170 0
-1 -162 -170 0
1 163 171 0
-1 -163 -171 0
1 164 172 0
-1 -164 -172 0
1 165 173 0
-1 -165 -173 0
1 166 174 0
-1 -166 -174 0
1 167 175 0
-1 -167 -175 0
1 168 176 0
-1 -168 -176 0
1 169 177 0
-1 -169 -177 0
1 170 178 0
-1 -170 -178 0
1 171 179 0
-1 -171 -179 0
1 172 180 0
-1 -172 -180 0
1 173 181 0
-1 -173 -181 0
1 174 182 0
-1 -174 -182 0
1 175 183 0
-1 -175 -183 0
1 176 184 0
-1 -176 -184 0
1 177 185 0
-1 -177 -185 0
