certificates/rado_a18_c10_N185.drat
1 -179 10 0
-1 -185 0
-8 -185 0
-185 0
-9 0
1 0
161 0
33 0
-169 0
-153 0
-41 0
-25 0
17 0
177 0
171 2 0
d 145 171 2 0
-10 0
179 0
162 0
180 0
15 0
-171 0
-170 0
-154 0
-172 0
-23 0
-7 0
19 0
2 0
18 0
54 0
38 0
20 0
56 0
139 0
175 0
123 0
159 0
125 0
126 0
141 0
37 0
157 0
53 0
69 0
55 0
-27 0
-45 0
-11 0
-28 0
-59 0
-135 0
-64 0
-12 0
-63 0
-151 0
-43 0
-136 0
-26 0
-44 0
-62 0
-80 0
-46 0
-30 0
-82 0
-48 0
-147 0
-165 0
-131 0
-113 0
-183 0
-167 0
-149 0
-115 0
-97 0
-133 0
-117 0
-99 0
-134 0
-152 0
-118 0
-100 0
-29 0
-61 0
-79 0
-77 0
-95 0
-81 0
-47 0
143 0
127 0
163 0
181 0
144 0
128 0
164 0
182 0
35 0
142 0
178 0
160 0
146 0
31 0
13 0
49 0
67 0
51 0
36 0
145 0
3 0
-119 0
-101 0
-155 0
-137 0
-173 0
-120 0
-102 0
-156 0
-138 0
-174 0
-8 0
-150 0
-168 0
-116 0
-39 0
-57 0
-5 0
-21 0
-75 0
-93 0
-98 0
-111 0
-83 0
-84 0
0
